c 171_3_checker.cnf
c
c field = 171
c formula set type = 3_checker
c
p cnf 4 58
334 
336 
338 
-332 
335 
337 
339 
-333 
334 
336 
338 
-342 
335 
337 
339 
-343 
336 
338 
342 
-334 
337 
339 
343 
-335 
336 
338 
342 
-344 
337 
339 
343 
-345 
338 
342 
344 
-336 
339 
343 
345 
-337 
338 
342 
344 
-346 
339 
343 
345 
-347 
342 
344 
346 
-338 
343 
345 
347 
-339 
342 
344 
346 
-348 
343 
345 
347 
-349 
250 
280 
310 
-220 
251 
281 
311 
-221 
250 
280 
310 
-370 
251 
281 
311 
-371 
280 
310 
370 
-250 
281 
311 
371 
-251 
280 
310 
370 
-400 
281 
311 
371 
-401 
310 
370 
400 
-280 
311 
371 
401 
-281 
310 
370 
400 
-430 
311 
371 
401 
-431 
370 
400 
430 
-310 
371 
401 
431 
-311 
244 
276 
308 
-212 
245 
277 
309 
-213 
244 
276 
308 
-372 
245 
277 
309 
-373 
276 
308 
372 
-244 
277 
309 
373 
-245 
276 
308 
372 
-404 
277 
309 
373 
-405 
308 
372 
404 
-276 
309 
373 
405 
-277 
308 
372 
404 
-436 
309 
373 
405 
-437 
372 
404 
436 
-308 
373 
405 
437 
-309 
256 
284 
312 
-228 
257 
285 
313 
-229 
256 
284 
312 
-368 
257 
285 
313 
-369 
284 
312 
368 
-256 
285 
313 
369 
-257 
284 
312 
368 
-396 
285 
313 
369 
-397 
312 
368 
396 
-284 
313 
369 
397 
-285 
312 
368 
396 
-424 
313 
369 
397 
-425 
368 
396 
424 
-312 
369 
397 
425 
-313 
